46 0
36 28
34 25
36 12
53 11
9 4
1 31.5
20 14.5
31 54.5
10 21.5
31 59.5
50 52.5
42 23.5
37 36
35 54
40 43
49 44
5 51
11 71
50 38
45 37.5
8 52.5
17 83.5
27 53.5
4 44.5
21 55.5
36 40.5
4 78
33 84
32 88
43 55
16 66
38 67
14 53
37 97.5
22 74.5
7 92.5
16 95.5
51 71.5
30 102.5
13 104.5
10 90
9 78
9 81
44 109
7 92
33 124
26 96
44 90.5
14 127.5
